NAME          DCAP_3_4_2_500_SS437
ROWS
 N  OBJ
 L  CON1
 L  CON2
 L  CON3
 L  CON4
 L  CON5
 L  CON6
 L  CON7
 L  CON8
 L  CON9
 L  CON10
 L  CON11
 L  CON12
 E  CON13
 E  CON14
 E  CON15
 E  CON16
 E  CON17
 E  CON18
 E  CON19
 E  CON20
COLUMNS
    x[1,1]    OBJ       6.180167      CON1      1.000000    
    x[1,1]    CON7      -1.000000     CON8      -1.000000   
    x[1,2]    OBJ       5.039546      CON2      1.000000    
    x[1,2]    CON8      -1.000000   
    x[2,1]    OBJ       6.732585      CON3      1.000000    
    x[2,1]    CON9      -1.000000     CON10     -1.000000   
    x[2,2]    OBJ       7.443064      CON4      1.000000    
    x[2,2]    CON10     -1.000000   
    x[3,1]    OBJ       6.563535      CON5      1.000000    
    x[3,1]    CON11     -1.000000     CON12     -1.000000   
    x[3,2]    OBJ       6.054841      CON6      1.000000    
    x[3,2]    CON12     -1.000000   
    MARKER    'MARKER'                'INTORG'
    u[1,1]    OBJ       48.076654     CON1      -1.000000   
    u[1,2]    OBJ       49.466655     CON2      -1.000000   
    u[2,1]    OBJ       49.996186     CON3      -1.000000   
    u[2,2]    OBJ       32.230043     CON4      -1.000000   
    u[3,1]    OBJ       20.066487     CON5      -1.000000   
    u[3,2]    OBJ       27.484319     CON6      -1.000000   
    y[1,1,1]  OBJ       6.825638      CON7      0.541068    
    y[1,1,1]  CON13     1.000000    
    y[1,1,2]  OBJ       5.190866      CON8      0.991549    
    y[1,1,2]  CON14     1.000000    
    y[1,2,1]  OBJ       9.074207      CON7      0.587148    
    y[1,2,1]  CON15     1.000000    
    y[1,2,2]  OBJ       5.677139      CON8      0.890115    
    y[1,2,2]  CON16     1.000000    
    y[1,3,1]  OBJ       7.052581      CON7      0.680666    
    y[1,3,1]  CON17     1.000000    
    y[1,3,2]  OBJ       6.161065      CON8      1.065230    
    y[1,3,2]  CON18     1.000000    
    y[1,4,1]  OBJ       8.974035      CON7      1.462911    
    y[1,4,1]  CON19     1.000000    
    y[1,4,2]  OBJ       6.180393      CON8      1.196642    
    y[1,4,2]  CON20     1.000000    
    y[2,1,1]  OBJ       6.710863      CON9      0.541068    
    y[2,1,1]  CON13     1.000000    
    y[2,1,2]  OBJ       5.902698      CON10     0.991549    
    y[2,1,2]  CON14     1.000000    
    y[2,2,1]  OBJ       5.975733      CON9      0.587148    
    y[2,2,1]  CON15     1.000000    
    y[2,2,2]  OBJ       5.116086      CON10     0.890115    
    y[2,2,2]  CON16     1.000000    
    y[2,3,1]  OBJ       7.067051      CON9      0.680666    
    y[2,3,1]  CON17     1.000000    
    y[2,3,2]  OBJ       7.491683      CON10     1.065230    
    y[2,3,2]  CON18     1.000000    
    y[2,4,1]  OBJ       6.760605      CON9      1.462911    
    y[2,4,1]  CON19     1.000000    
    y[2,4,2]  OBJ       7.623759      CON10     1.196642    
    y[2,4,2]  CON20     1.000000    
    y[3,1,1]  OBJ       8.641123      CON11     0.541068    
    y[3,1,1]  CON13     1.000000    
    y[3,1,2]  OBJ       8.418843      CON12     0.991549    
    y[3,1,2]  CON14     1.000000    
    y[3,2,1]  OBJ       6.598648      CON11     0.587148    
    y[3,2,1]  CON15     1.000000    
    y[3,2,2]  OBJ       7.775093      CON12     0.890115    
    y[3,2,2]  CON16     1.000000    
    y[3,3,1]  OBJ       5.226262      CON11     0.680666    
    y[3,3,1]  CON17     1.000000    
    y[3,3,2]  OBJ       8.872524      CON12     1.065230    
    y[3,3,2]  CON18     1.000000    
    y[3,4,1]  OBJ       6.576852      CON11     1.462911    
    y[3,4,1]  CON19     1.000000    
    y[3,4,2]  OBJ       5.278381      CON12     1.196642    
    y[3,4,2]  CON20     1.000000    
    z[1,1]    OBJ       519.846214    CON13     1.000000    
    z[1,2]    OBJ       671.956031    CON14     1.000000    
    z[2,1]    OBJ       611.370631    CON15     1.000000    
    z[2,2]    OBJ       527.713334    CON16     1.000000    
    z[3,1]    OBJ       762.900776    CON17     1.000000    
    z[3,2]    OBJ       890.922350    CON18     1.000000    
    z[4,1]    OBJ       659.158012    CON19     1.000000    
    z[4,2]    OBJ       594.107959    CON20     1.000000    
    MARKER    'MARKER'                 'INTEND'
RHS
    RHS       CON1      -0.000000     CON2      -0.000000   
    RHS       CON3      -0.000000     CON4      -0.000000   
    RHS       CON5      -0.000000     CON6      -0.000000   
    RHS       CON7      -0.000000     CON8      -0.000000   
    RHS       CON9      -0.000000     CON10     -0.000000   
    RHS       CON11     -0.000000     CON12     -0.000000   
    RHS       CON13     1.000000      CON14     1.000000    
    RHS       CON15     1.000000      CON16     1.000000    
    RHS       CON17     1.000000      CON18     1.000000    
    RHS       CON19     1.000000      CON20     1.000000    
BOUNDS
 BV BOUND     u[1,1]  
 BV BOUND     u[1,2]  
 BV BOUND     u[2,1]  
 BV BOUND     u[2,2]  
 BV BOUND     u[3,1]  
 BV BOUND     u[3,2]  
 BV BOUND     y[1,1,1]
 BV BOUND     y[1,1,2]
 BV BOUND     y[1,2,1]
 BV BOUND     y[1,2,2]
 BV BOUND     y[1,3,1]
 BV BOUND     y[1,3,2]
 BV BOUND     y[1,4,1]
 BV BOUND     y[1,4,2]
 BV BOUND     y[2,1,1]
 BV BOUND     y[2,1,2]
 BV BOUND     y[2,2,1]
 BV BOUND     y[2,2,2]
 BV BOUND     y[2,3,1]
 BV BOUND     y[2,3,2]
 BV BOUND     y[2,4,1]
 BV BOUND     y[2,4,2]
 BV BOUND     y[3,1,1]
 BV BOUND     y[3,1,2]
 BV BOUND     y[3,2,1]
 BV BOUND     y[3,2,2]
 BV BOUND     y[3,3,1]
 BV BOUND     y[3,3,2]
 BV BOUND     y[3,4,1]
 BV BOUND     y[3,4,2]
 BV BOUND     z[1,1]  
 BV BOUND     z[1,2]  
 BV BOUND     z[2,1]  
 BV BOUND     z[2,2]  
 BV BOUND     z[3,1]  
 BV BOUND     z[3,2]  
 BV BOUND     z[4,1]  
 BV BOUND     z[4,2]  
ENDATA
